solverbin/ReDoSHunter4Symbolic/output/0_0_0_0.log
prefix:
SmtNode{intersectionRegexes=[(https:\/\/)(((.*)＆[\s\S]{1,}))]}
infix:
SmtNode{intersectionRegexes=[1/]}
suffix:
SmtNode{intersectionRegexes=[
!
!
]}
repeatTimes:
16
attackSuccess:
true
attackString:
https:// 1/1/1/1/1/1/1/1/1/1/1/1/1/1/1/1/
!
!


